(set-logic ALL)
(declare-fun seed0_T_1 () Bool)
(declare-fun seed0_T_2 () Bool)
(declare-fun seed0_T_3 () Bool)
(declare-fun seed0_T_4 () Bool)
(declare-fun seed0_T_5 () Bool)
(declare-fun seed0_T_6 () Bool)
(declare-fun seed0_T_7 () Bool)
(declare-fun seed0_T_8 () Bool)
(declare-fun seed0_T_9 () Bool)
(declare-fun seed0_T_a () Bool)
(declare-fun seed0_T_b () Bool)
(declare-fun seed0_T_c () Bool)
(declare-fun seed0_T_d () Bool)
(declare-fun seed0_var_0xINPUT_221498 () String)
(assert (and (or (= seed0_T_1 (not (= "" seed0_var_0xINPUT_221498))) (=> (str.prefixof (str.++ seed0_var_0xINPUT_221498 "MZj") (str.++ seed0_var_0xINPUT_221498 "rpOt")) (str.prefixof (str.++ seed0_var_0xINPUT_221498 "uFWSsanRGleEgJv4LBZH") (str.++ seed0_var_0xINPUT_221498 "oNzxlEceQiwKWtRP")))) (or seed0_T_1 (str.contains (str.++ seed0_var_0xINPUT_221498 "9zwARrQO") (str.++ seed0_var_0xINPUT_221498 ""))) (or (= seed0_T_2 (not (= "" seed0_var_0xINPUT_221498))) (str.suffixof (str.++ seed0_var_0xINPUT_221498 "DbW") (str.++ seed0_var_0xINPUT_221498 "5y0wX3TtEn"))) (or seed0_T_2 (str.suffixof (str.++ seed0_var_0xINPUT_221498 "vHwz5sLEuR") (str.++ seed0_var_0xINPUT_221498 "NhCcU3jTfmBQgw5W96l"))) (or (= seed0_T_3 (not (= "3s71lxYG6e" seed0_var_0xINPUT_221498))) (=> (str.prefixof (str.++ seed0_var_0xINPUT_221498 "mYJMKvs") (str.++ seed0_var_0xINPUT_221498 "")) (str.< (str.++ seed0_var_0xINPUT_221498 "ONyCaY98SjM3lcwr2U") (str.++ seed0_var_0xINPUT_221498 "OqEoafbvnP")))) (or seed0_T_3 (=> (str.contains (str.++ seed0_var_0xINPUT_221498 "d1lmy") (str.++ seed0_var_0xINPUT_221498 "Cqnm1P4gOKQlGw")) (str.suffixof (str.++ seed0_var_0xINPUT_221498 "wEpnvrKWA25IPBa6y81D") (str.++ seed0_var_0xINPUT_221498 "vRKaix2E5yrOfD")))) (or (= seed0_T_4 (not (= seed0_var_0xINPUT_221498 "3s71lxYG6e"))) (xor (str.suffixof (str.++ seed0_var_0xINPUT_221498 "dZxEkwna53qmcVDo2") (str.++ seed0_var_0xINPUT_221498 "nygP2apNqe01G4uB")) (str.<= (str.++ seed0_var_0xINPUT_221498 "zowe21Yjd") (str.++ seed0_var_0xINPUT_221498 "zgvAlJQ7N")))) (or seed0_T_4 (and (str.prefixof (str.++ seed0_var_0xINPUT_221498 "DH0sIxJ5fKdhty98W") (str.++ seed0_var_0xINPUT_221498 "1tMWyX")) (str.suffixof (str.++ seed0_var_0xINPUT_221498 "R") (str.++ seed0_var_0xINPUT_221498 "TkstD6dpA9rcV1")))) (or (= seed0_T_5 (= seed0_var_0xINPUT_221498 "")) (or (str.prefixof (str.++ seed0_var_0xINPUT_221498 "w") (str.++ seed0_var_0xINPUT_221498 "POdz6IGbLTX5QHJA")) (str.prefixof (str.++ seed0_var_0xINPUT_221498 "L56PpyrOBoEIfMg92mA") (str.++ seed0_var_0xINPUT_221498 "zyBOSQ4ZxKAaqkedJ1Ms")))) (or (= seed0_T_6 (not seed0_T_5)) (and (str.contains (str.++ seed0_var_0xINPUT_221498 "LIstZGfpnjxF0bl7hS") (str.++ seed0_var_0xINPUT_221498 "ch")) (str.<= (str.++ seed0_var_0xINPUT_221498 "GMPNio6tLYrD") (str.++ seed0_var_0xINPUT_221498 "2Z5OjNVKbXEfn")))) (or seed0_T_6 (and (str.prefixof (str.++ seed0_var_0xINPUT_221498 "nGlbcHmSqZE") (str.++ seed0_var_0xINPUT_221498 "t")) (str.contains (str.++ seed0_var_0xINPUT_221498 "il") (str.++ seed0_var_0xINPUT_221498 "KXWbv1T3JljBC")))) (or (= seed0_T_7 (not (= "" seed0_var_0xINPUT_221498))) (str.contains (str.++ seed0_var_0xINPUT_221498 "FNUtiDHQOGX") (str.++ seed0_var_0xINPUT_221498 "iN"))) (or seed0_T_7 (not (str.<= (str.++ seed0_var_0xINPUT_221498 "Zz4TlNhn") (str.++ seed0_var_0xINPUT_221498 "eLE")))) (or (= seed0_T_8 (not (= seed0_var_0xINPUT_221498 "3s71lxYG6e"))) (=> (str.prefixof (str.++ seed0_var_0xINPUT_221498 "") (str.++ seed0_var_0xINPUT_221498 "qjubc1")) (str.< (str.++ seed0_var_0xINPUT_221498 "TZc1") (str.++ seed0_var_0xINPUT_221498 "")))) (or seed0_T_8 (=> (str.< (str.++ seed0_var_0xINPUT_221498 "e95v0") (str.++ seed0_var_0xINPUT_221498 "7YhHzy3")) (str.prefixof (str.++ seed0_var_0xINPUT_221498 "TPnHX0I") (str.++ seed0_var_0xINPUT_221498 "BG5tpq4YzsOj")))) (or (= seed0_T_9 (not (= "3s71lxYG6e" seed0_var_0xINPUT_221498))) (not (str.contains (str.++ seed0_var_0xINPUT_221498 "7c8oHjlvdM0QZa1") (str.++ seed0_var_0xINPUT_221498 "19Gu")))) (or seed0_T_9 (not (str.suffixof (str.++ seed0_var_0xINPUT_221498 "W0zcvOMInbXrmEad8SKH") (str.++ seed0_var_0xINPUT_221498 "jN8Vk7naI")))) (or (= seed0_T_a (= seed0_var_0xINPUT_221498 "")) (str.<= (str.++ seed0_var_0xINPUT_221498 "brqP0JgCKH8ySmoLuXY") (str.++ seed0_var_0xINPUT_221498 "0Y3l2JVZGIs"))) (or (= seed0_T_b (not seed0_T_a)) (xor (str.prefixof (str.++ seed0_var_0xINPUT_221498 "AlZmEjVgNp53HU8JyM") (str.++ seed0_var_0xINPUT_221498 "mKxBPTjIg6UZO9C")) (str.suffixof (str.++ seed0_var_0xINPUT_221498 "j5QSeCKlbOcA47d") (str.++ seed0_var_0xINPUT_221498 "FZimMkhl")))) (or seed0_T_b (and (str.<= (str.++ seed0_var_0xINPUT_221498 "pz7") (str.++ seed0_var_0xINPUT_221498 "KXmCWJlix4IL2")) (str.prefixof (str.++ seed0_var_0xINPUT_221498 "pn8SU") (str.++ seed0_var_0xINPUT_221498 "AfMZGEtUm3FqPl")))) (or (= seed0_T_c (not (= "" seed0_var_0xINPUT_221498))) (or (str.< (str.++ seed0_var_0xINPUT_221498 "fvhFBEzLbU2c7iX") (str.++ seed0_var_0xINPUT_221498 "Fb1IL")) (str.<= (str.++ seed0_var_0xINPUT_221498 "Tnv81rEJlPjuK4cO5LR") (str.++ seed0_var_0xINPUT_221498 "AHKU3GD6WxgFdcBaqJy1")))) (or seed0_T_c (=> (str.contains (str.++ seed0_var_0xINPUT_221498 "Dm2vXFA") (str.++ seed0_var_0xINPUT_221498 "DoPSO8e")) (str.suffixof (str.++ seed0_var_0xINPUT_221498 "2PhVcGNrIl") (str.++ seed0_var_0xINPUT_221498 "csuyjCdFaQLxYTg9")))) (or (= seed0_T_d (= seed0_var_0xINPUT_221498 "Example:")) (=> (str.suffixof (str.++ seed0_var_0xINPUT_221498 "3rTpc2lI6y") (str.++ seed0_var_0xINPUT_221498 "V2xJHU6PYdi")) (str.suffixof (str.++ seed0_var_0xINPUT_221498 "Kvs9O8gjl") (str.++ seed0_var_0xINPUT_221498 "QatWYy3eljfN")))) (or seed0_T_d (not (str.suffixof (str.++ seed0_var_0xINPUT_221498 "Z") (str.++ seed0_var_0xINPUT_221498 "iX43qoKUafCZYMkzALBw"))))))
(check-sat)
(exit)